language ESSENCE' 1.0
$ Minion SolverNodes: 1319
$ Minion SolverTotalTime: 0.110123
$ Minion SolverTimeOut: 0
$ Savile Row TotalTime: 0.878
letting cells be [[4, 5], 
[3, 5], 
[2, 5], 
[1, 5], 
[1, 4], 
[1, 3], 
[1, 2], 
[1, 1], 
[2, 1], 
[3, 1], 
[4, 1], 
[5, 1], 
[5, 2], 
[5, 3], 
[5, 4], 
[4, 4], 
[3, 4], 
[2, 4], 
[2, 3], 
[2, 2], 
[3, 2], 
[4, 2], 
[4, 3], 
[3, 3]]
